WARNING: for repeatability, setting FPU to use double precision
============================[ Problem Statistics ]=============================
|                                                                             |
|  Number of variables:           100                                         |
|  Number of clauses:             449                                         |
|  Parse time:                   0.00 s                                       |
|  Eliminated clauses:           0.00 Mb                                      |
|  Simplification time:          0.00 s                                       |
|                                                                             |
============================[ Search Statistics ]==============================
| Conflicts |          ORIGINAL         |          LEARNT          | Progress |
|           |    Vars  Clauses Literals |    Limit  Clauses Lit/Cl |          |
===============================================================================
|       100 |      95      437     1333 |      160      100      5 |  0.080 % |
|       250 |      95      437     1333 |      176      167      5 |  0.040 % |
===============================================================================
restarts              : 3
conflicts             : 356            (94155 /sec)
decisions             : 439            (0.00 % random) (116107 /sec)
propagations          : 7923           (2095477 /sec)
conflict literals     : 1820           (25.56 % deleted)
Memory used           : 13.00 MB
CPU time              : 0.003781 s

SATISFIABLE
